2
5, 7, 1, 8, 2, 6, 10, 11, 4, 4, 2, 3, 1, 11, 7, 9, 5, 8, 9, 8, 6, 4, 5, 10, 3, 7, 2, 8, 6, 5, 2, 4, 3, 7, 9, 1, 3, 4, 7, 9, 8, 1, 2, 6, 5, 2, 1, 9, 5, 7, 11, 4, 3, 10, 10, 5, 4, 7, 3, 8, 6, 1, 11, 11, 3, 2, 6, 1, 5, 8, 4, 7, 7, 9, 8, 11, 10, 4, 5, 2, 3
